========================================================== 
File name: C:\DEGR\assets\definitions\MSRCPSP_Gen\100_5_64_5_B.def
Creation date: Wed May 03 10:36:29 CEST 2023
Website: http://imopse.ii.pwr.edu.pl/ 
Reference: 
Myszkowski P. B., Skowronski M. E., Olech L., Oslizlo K., 
Hybrid Ant Colony Optimization in solving Multi-Skill Resource-Constrained Project Scheduling Problem, 
Soft Computing, DOI: DOI 10.1007/s00500-014-1455-x 
========================================================== 
General characteristics: 
Tasks: 100
Resources: 5
Precedence relations: 61
Number of skill types: 5
========================================================== 
ResourceID 	 Salary 	 Skills 
1	 	 	41.1	 	 Q4: 0 	  Q3: 0 	 
2	 	 	95.1	 	 Q4: 1 	  Q3: 1 	  Q2: 1 	  Q1: 2 	 
3	 	 	64.4	 	 Q0: 2 	  Q1: 3 	  Q4: 3 	  Q3: 2 	 
4	 	 	71.7	 	 Q2: 2 	 
5	 	 	49.7	 	 Q3: 0 	  Q4: 0 	  Q2: 2 	 
========================================================== 
TaskID 	 Duration 	 Skill 	 Predecessor IDs 
1	22	Q0:	2
2	33	Q4:	0
3	9	Q1:	2
4	24	Q3:	0
5	40	Q1:	2
6	30	Q4:	0
7	37	Q3:	2
8	22	Q1:	2
9	25	Q4:	1
10	39	Q3:	1
11	25	Q3:	2	2
12	32	Q3:	2
13	19	Q1:	3
14	34	Q4:	3
15	29	Q3:	1
16	25	Q3:	1	15
17	11	Q3:	0
18	36	Q4:	3
19	17	Q0:	2
20	22	Q3:	1
21	13	Q2:	2
22	17	Q4:	1
23	21	Q1:	3
24	18	Q4:	0
25	38	Q1:	2	8	11
26	31	Q0:	2
27	14	Q4:	0
28	26	Q3:	1
29	30	Q3:	0
30	23	Q4:	0
31	12	Q2:	2	28
32	29	Q2:	1	18
33	25	Q1:	3
34	19	Q3:	2
35	33	Q3:	1
36	27	Q2:	2
37	21	Q2:	2
38	28	Q3:	1
39	22	Q2:	1
40	29	Q3:	2
41	32	Q3:	2	29
42	13	Q3:	1	2
43	29	Q3:	0	11
44	20	Q2:	2
45	11	Q3:	2
46	19	Q3:	1	17	27
47	29	Q4:	1
48	9	Q2:	2
49	31	Q3:	1
50	13	Q2:	1	19	26
51	31	Q4:	1	43
52	15	Q1:	2	41	36
53	12	Q1:	3	14	24
54	25	Q4:	0	32
55	16	Q3:	0
56	25	Q2:	1	39
57	19	Q2:	1	25	11
58	15	Q2:	2
59	15	Q0:	2
60	14	Q2:	2	29
61	32	Q4:	3	9	33	50	59
62	32	Q4:	1	22
63	27	Q1:	2
64	20	Q2:	2	38
65	30	Q3:	1
66	29	Q0:	2
67	35	Q3:	0
68	36	Q3:	1
69	35	Q2:	1
70	21	Q2:	1	3	33	6
71	30	Q2:	1	7
72	32	Q4:	0
73	19	Q4:	0
74	26	Q4:	3	56	64	25
75	33	Q0:	2
76	12	Q3:	2
77	33	Q1:	3	68	67
78	39	Q3:	2	58
79	14	Q4:	1
80	37	Q3:	0
81	14	Q3:	0
82	11	Q1:	2	71	51
83	24	Q3:	0
84	12	Q3:	2
85	9	Q2:	1	50
86	40	Q2:	1	5	69
87	36	Q0:	2
88	10	Q3:	0	17	38
89	40	Q4:	0
90	14	Q4:	1
91	28	Q1:	3	73
92	36	Q2:	1	39
93	30	Q2:	1	3
94	23	Q4:	1	56
95	32	Q3:	1
96	30	Q2:	1	53	23
97	37	Q0:	2	2	84	10	11
98	18	Q1:	2	73
99	36	Q4:	0	13	21
100	18	Q4:	0	39	92
========================================================== 